
******************************************************************************
This program contains Ipopt, a library for large-scale nonlinear optimization.
 Ipopt is released as open source code under the Eclipse Public License (EPL).
         For more information visit http://projects.coin-or.org/Ipopt

This version of Ipopt was compiled from source code available at
    https://github.com/IDAES/Ipopt as part of the Institute for the Design of
    Advanced Energy Systems Process Systems Engineering Framework (IDAES PSE
    Framework) Copyright (c) 2018-2019. See https://github.com/IDAES/idaes-pse.

This version of Ipopt was compiled using HSL, a collection of Fortran codes
    for large-scale scientific computation.  All technical papers, sales and
    publicity material resulting from use of the HSL codes within IPOPT must
    contain the following acknowledgement:
        HSL, a collection of Fortran codes for large-scale scientific
        computation. See http://www.hsl.rl.ac.uk.
******************************************************************************

This is Ipopt version 3.13.2, running with linear solver ma27.

Number of nonzeros in equality constraint Jacobian...:     1172
Number of nonzeros in inequality constraint Jacobian.:        0
Number of nonzeros in Lagrangian Hessian.............:     1333

Total number of variables............................:      465
                     variables with only lower bounds:      124
                variables with lower and upper bounds:      279
                     variables with only upper bounds:        0
Total number of equality constraints.................:      462
Total number of inequality constraints...............:        0
        inequality constraints with only lower bounds:        0
   inequality constraints with lower and upper bounds:        0
        inequality constraints with only upper bounds:        0

iter    objective    inf_pr   inf_du lg(mu)  ||d||  lg(rg) alpha_du alpha_pr  ls
   0  0.0000000e+00 1.78e+00 5.24e-14  -1.0 0.00e+00    -  0.00e+00 0.00e+00   0
   1  1.1277883e+00 1.41e+00 2.12e+05  -1.0 1.94e+06    -  2.09e-02 4.46e-02f  4
   2  3.2441104e+00 1.37e+00 3.64e+05  -1.0 2.71e+06    -  2.24e-02 3.12e-02h  4
   3  3.7536856e+00 1.36e+00 3.66e+05  -1.0 4.22e+06    -  2.18e-02 3.55e-03h  7
   4  4.7195930e+00 1.36e+00 3.72e+05  -1.0 4.09e+06    -  2.34e-02 6.38e-03h  6
   5  6.1320504e+00 1.35e+00 3.80e+05  -1.0 4.97e+06    -  5.69e-02 6.87e-03h  6
   6  6.8949897e+00 1.34e+00 3.81e+05  -1.0 5.80e+06    -  3.98e-02 3.29e-03h  7
   7  1.0130482e+01 1.33e+00 4.05e+05  -1.0 6.47e+06    -  6.33e-02 1.21e-02h  5
   8  3.9249556e+01 1.58e+00 1.87e+06  -1.0 1.01e+07    -  2.92e-02 4.24e-02h  3
   9  5.3105547e+01 1.59e+00 1.97e+06  -1.0 2.33e+07    -  7.72e-02 7.71e-03h  5
iter    objective    inf_pr   inf_du lg(mu)  ||d||  lg(rg) alpha_du alpha_pr  ls
  10  9.3059722e+01 1.64e+00 2.43e+06  -1.0 2.92e+07    -  3.99e-02 1.43e-02h  4
  11  1.2471637e+03 4.21e+00 4.21e+07  -1.0 4.11e+07    -  1.42e-01 1.06e-01w  1
  12  1.2485481e+03 4.21e+00 4.21e+07  -1.0 7.42e+07    -  3.04e-02 1.74e-04w  1
  13  1.9166832e+03 5.91e+00 4.21e+07  -1.0 6.84e+07    -  8.59e-02 2.56e-02w  1
  14  1.6136332e+02 1.67e+00 2.96e+06  -1.0 5.53e+07    -  1.42e-01 1.32e-02h  3
  15  2.1698222e+02 1.68e+00 3.10e+06  -1.0 5.71e+07    -  3.60e-02 6.35e-03h  5
  16  2.8748264e+02 1.68e+00 3.42e+06  -1.0 6.72e+07    -  1.23e-01 5.91e-03h  5
  17  5.0630506e+02 1.71e+00 6.45e+06  -1.0 7.80e+07    -  4.11e-02 1.25e-02h  4
  18  1.0532430e+03 1.74e+00 1.36e+07  -1.0 1.05e+08    -  1.15e-01 1.68e-02h  3
  19  3.5938640e+03 1.72e+00 2.49e+07  -1.0 1.49e+08    -  4.29e-02 3.24e-02h  1
iter    objective    inf_pr   inf_du lg(mu)  ||d||  lg(rg) alpha_du alpha_pr  ls
  20r 3.5938640e+03 1.72e+00 9.99e+02   0.2 0.00e+00  -2.0 0.00e+00 3.63e-07R  9
  21r 3.5938641e+03 1.57e+00 9.97e+02   0.2 1.37e+03    -  1.13e-02 1.45e-03f  1
  22r 3.5938603e+03 1.39e+00 9.91e+02   0.2 1.13e+03    -  3.66e-02 5.62e-03f  1
  23  4.3847153e+03 1.40e+00 4.72e+03  -1.0 3.27e+08    -  3.07e-02 3.39e-03h  1
  24  5.4292226e+03 1.40e+00 1.27e+04  -1.0 3.82e+08    -  7.05e-02 3.46e-03h  4
  25  7.4611992e+03 1.40e+00 3.92e+04  -1.0 4.43e+08    -  4.98e-02 5.07e-03h  5
  26  1.0593983e+04 1.41e+00 9.49e+04  -1.0 5.60e+08    -  7.12e-02 5.23e-03h  5
  27  1.5739325e+04 1.42e+00 2.22e+05  -1.0 7.43e+08    -  3.20e-02 5.37e-03h  5
  28  2.1222027e+04 1.42e+00 3.54e+05  -1.0 1.07e+09    -  9.10e-02 3.36e-03h  5
  29  2.6837279e+04 1.42e+00 4.89e+05  -1.0 1.47e+09    -  2.01e-02 2.18e-03h  6
iter    objective    inf_pr   inf_du lg(mu)  ||d||  lg(rg) alpha_du alpha_pr  ls
  30  3.8714347e+04 1.43e+00 1.01e+06  -1.0 1.94e+09    -  8.73e-02 3.01e-03h  5
  31  4.9621472e+04 1.43e+00 1.49e+06  -1.0 3.24e+09    -  1.16e-02 1.42e-03h  6
  32  6.9650921e+04 1.44e+00 3.10e+06  -1.0 4.75e+09    -  2.44e-01 1.53e-03h  5
  33  8.1802533e+04 1.44e+00 4.06e+06  -1.0 9.89e+09    -  4.70e-03 3.95e-04h  8
  34  3.9744947e+06 2.23e+01 3.54e+09  -1.0 1.43e+10    -  2.47e-01 2.10e-02w  1
  35  1.7152353e+07 2.34e+01 3.25e+09  -1.0 6.81e+09    -  1.80e-02 5.56e-02w  1
  36  1.7152355e+07 2.34e+01 3.25e+09  -1.0 2.03e+08  -2.5 1.94e-02 1.49e-06w  1
  37  9.7728635e+04 1.44e+00 6.19e+06  -1.0 3.08e+09    -  2.47e-01 3.28e-04h  6
  38  1.0759774e+05 1.44e+00 7.57e+06  -1.0 2.62e+10    -  2.14e-03 1.04e-04h 10
  39  1.1346800e+05 1.44e+00 8.34e+06  -1.0 3.83e+10    -  3.11e-02 4.07e-05h 10
iter    objective    inf_pr   inf_du lg(mu)  ||d||  lg(rg) alpha_du alpha_pr  ls
  40  1.2167194e+05 1.44e+00 1.05e+07  -1.0 5.10e+10    -  1.22e-03 4.14e-05h 10
  41r 1.2167194e+05 1.44e+00 1.00e+03   0.2 0.00e+00    -  0.00e+00 3.35e-07R 15
  42r 1.2167194e+05 1.36e+00 9.96e+02   0.2 8.10e+02    -  3.36e-02 2.64e-03f  1
  43r 1.2167191e+05 4.58e-01 9.76e+02   0.2 9.00e+02    -  8.69e-04 2.09e-02f  1
  44  1.3416777e+05 6.16e-01 1.68e+08  -1.0 7.09e+07    -  1.97e-06 4.82e-02h  3
  45  1.3345782e+05 6.10e-01 1.74e+08  -1.0 5.54e+07    -  3.38e-02 6.06e-03f  4
  46  1.3285066e+05 6.02e-01 1.69e+08  -1.0 3.46e+07    -  7.37e-02 5.05e-03f  4
  47  1.3251982e+05 5.97e-01 1.68e+08  -1.0 7.44e+07    -  3.30e-02 2.30e-03f  5
  48  1.3219741e+05 5.91e-01 1.69e+08  -1.0 1.13e+08    -  2.34e-02 2.09e-03f  5
  49  1.3207078e+05 5.90e-01 1.70e+08  -1.0 2.23e+08    -  1.59e-02 5.06e-04f  7
iter    objective    inf_pr   inf_du lg(mu)  ||d||  lg(rg) alpha_du alpha_pr  ls
  50  1.2904772e+05 4.85e+00 2.08e+09  -1.0 2.17e+08    -  1.62e-02 3.28e-02f  1
  51  1.3344253e+05 4.58e+00 1.98e+09  -1.0 9.11e+07    -  4.65e-02 4.64e-02h  2
  52  1.3380449e+05 4.57e+00 1.97e+09  -1.0 1.04e+08    -  6.07e-02 2.77e-03h  4
  53  1.4949175e+05 4.12e+00 1.76e+09  -1.0 1.06e+08    -  4.87e-02 9.15e-02h  2
  54  1.6485773e+05 3.87e+00 1.55e+09  -1.0 1.04e+08    -  4.81e-02 6.08e-02h  5
  55  1.6482848e+05 3.84e+00 1.53e+09  -1.0 3.55e+07  -3.0 2.01e-01 5.74e-03f  3
  56  1.6479478e+05 3.82e+00 1.51e+09  -1.0 3.55e+07  -3.4 2.54e-01 5.08e-03f  3
  57  1.6475224e+05 3.80e+00 1.50e+09  -1.0 3.59e+07  -3.9 1.22e-01 3.83e-03f  3
  58  1.6472050e+05 3.79e+00 1.50e+09  -1.0 4.21e+07  -4.4 1.30e-01 2.96e-03f  3
  59  1.6480811e+05 3.77e+00 1.49e+09  -1.0 2.39e+08  -4.9 2.61e-02 2.55e-03h  3
iter    objective    inf_pr   inf_du lg(mu)  ||d||  lg(rg) alpha_du alpha_pr  ls
  60  1.6490812e+05 3.76e+00 2.26e+09  -1.0 3.84e+08  -5.3 1.80e-02 4.18e-03h  2
  61  1.6439039e+05 3.74e+00 4.85e+09  -1.0 4.04e+08  -5.8 2.12e-02 4.05e-03f  1
  62  1.6408216e+05 3.74e+00 4.89e+09  -1.0 1.97e+09  -6.3 7.48e-03 1.10e-04f  1
  63  1.5481174e+05 3.74e+00 5.61e+10  -1.0 3.28e+09  -6.8 1.29e-01 7.13e-04f  1
  64  4.7188218e+04 2.60e+00 7.56e+10  -1.0 1.55e+10  -7.2 3.95e-03 3.70e-03f  1
  65  6.4693278e+04 2.60e+00 1.29e+11  -1.0 4.49e+09    -  5.01e-03 1.76e-03h  4
  66  9.3568663e+04 2.59e+00 6.46e+11  -1.0 1.30e+09    -  2.03e-02 8.18e-03h  2
  67  1.1047260e+05 2.57e+00 7.96e+11  -1.0 8.40e+08    -  4.46e-02 6.39e-03h  2
  68  1.0992247e+05 2.57e+00 1.23e+12  -1.0 4.58e+09  -5.0 2.18e-02 5.91e-04f  2
  69  1.5933501e+05 2.46e+00 1.13e+12  -1.0 1.12e+08    -  5.35e-03 6.88e-02h  2
iter    objective    inf_pr   inf_du lg(mu)  ||d||  lg(rg) alpha_du alpha_pr  ls
  70  2.1237439e+05 2.39e+00 8.14e+11  -1.0 8.06e+07    -  5.71e-02 9.19e-02h  2
  71  2.2979244e+05 2.44e+00 1.30e+13  -1.0 2.93e+07    -  1.36e-01 1.06e-01H  1
  72r 2.2979244e+05 2.44e+00 1.00e+03   0.4 0.00e+00  -3.7 0.00e+00 2.58e-07R  5
  73r 2.2979244e+05 9.89e-01 1.08e+03   0.4 7.82e+03    -  1.69e-02 2.81e-03f  1
  74  2.2974739e+05 9.49e-01 6.48e+06  -1.0 1.66e+08    -  1.66e-06 1.08e-02f  4
  75  2.2905887e+05 4.29e+00 4.45e+07  -1.0 3.20e+08    -  3.43e-03 1.24e-02f  1
  76  2.2541515e+05 4.77e+00 1.63e+08  -1.0 3.05e+08    -  2.40e-02 3.36e-02f  2
  77  2.2361569e+05 4.75e+00 1.70e+08  -1.0 3.57e+08    -  4.59e-02 3.58e-03f  5
  78  2.2355897e+05 4.74e+00 1.75e+08  -1.0 3.24e+08    -  4.89e-02 3.46e-03f  5
  79  2.2538506e+05 4.72e+00 1.77e+08  -1.0 3.02e+08    -  5.52e-02 3.23e-03h  5
iter    objective    inf_pr   inf_du lg(mu)  ||d||  lg(rg) alpha_du alpha_pr  ls
  80  2.2637282e+05 4.72e+00 1.77e+08  -1.0 3.27e+08    -  7.34e-02 8.08e-04h  7
  81  2.2717540e+05 4.72e+00 1.77e+08  -1.0 3.80e+08    -  6.28e-02 4.04e-04h  8
  82  2.2730353e+05 4.72e+00 1.77e+08  -1.0 4.29e+08    -  7.63e-02 5.15e-05h 11
  83  2.2737799e+05 4.72e+00 1.77e+08  -1.0 4.39e+08    -  8.90e-02 2.72e-05h 12
  84  2.2865827e+05 4.71e+00 1.76e+08  -1.0 3.86e+08    -  1.02e-01 5.15e-04h  8
  85  2.2926032e+05 4.71e+00 1.76e+08  -1.0 2.62e+08    -  1.45e-01 3.42e-04h  9
  86  4.0245384e+05 6.07e+00 1.52e+09  -1.0 1.61e+08    -  1.06e-01 1.37e-01w  1
  87  3.9978516e+05 6.28e+00 4.59e+11  -1.0 7.68e+07  -4.2 5.02e-02 3.93e-02w  1
  88  3.9975584e+05 6.27e+00 4.59e+11  -1.0 5.42e+07  -4.6 4.43e-03 5.01e-04w  1
  89  2.2981383e+05 4.71e+00 1.76e+08  -1.0 2.31e+08    -  1.06e-01 5.34e-04h  8
iter    objective    inf_pr   inf_du lg(mu)  ||d||  lg(rg) alpha_du alpha_pr  ls
  90r 2.2981383e+05 4.71e+00 1.00e+03   0.7 0.00e+00    -  0.00e+00 3.35e-07R 20
  91r 2.2981383e+05 1.84e+00 9.97e+02   0.7 5.97e+03    -  2.62e-03 3.34e-03f  1
  92  2.2940689e+05 2.64e+00 1.41e+06  -1.0 8.27e+07    -  2.09e-02 4.81e-02f  2
  93  2.2586749e+05 3.27e+00 1.60e+07  -1.0 6.26e+07    -  5.64e-02 3.48e-02f  2
  94  2.2561156e+05 3.89e+00 1.87e+09  -1.0 3.39e+07  -5.1 6.49e-02 3.58e-02f  2
  95  2.2510489e+05 4.04e+00 2.97e+09  -1.0 1.27e+08  -5.6 1.62e-02 1.18e-02f  1
  96  2.2509906e+05 4.04e+00 2.97e+09  -1.0 1.58e+08  -6.1 1.89e-01 6.05e-05f  1
  97  1.9414489e+05 5.02e+00 2.73e+09  -1.0 3.04e+08    -  2.05e-03 1.82e-02f  3
  98  1.9414016e+05 5.02e+00 2.73e+09  -1.0 3.92e+08    -  1.09e-02 7.93e-06f  1
  99  1.9409346e+05 5.02e+00 2.73e+09  -1.0 3.44e+08    -  5.93e-02 5.64e-05f  1
iter    objective    inf_pr   inf_du lg(mu)  ||d||  lg(rg) alpha_du alpha_pr  ls
 100  1.8311571e+05 5.25e+00 2.81e+09  -1.0 3.44e+08    -  1.59e-02 1.58e-02f  2
 101  1.7096920e+05 5.21e+00 2.51e+09  -1.0 2.11e+08    -  3.76e-02 2.78e-02f  3
 102  1.7106130e+05 5.21e+00 2.51e+09  -1.0 3.63e+08    -  3.79e-03 2.95e-04h  8
 103  1.7108519e+05 5.21e+00 2.51e+09  -1.0 3.69e+08    -  2.26e-03 7.26e-05h 10
 104  1.7137617e+05 5.20e+00 2.51e+09  -1.0 3.70e+08    -  4.23e-02 8.55e-04h  6
 105  1.8187100e+05 5.15e+00 2.79e+09  -1.0 3.87e+08    -  7.61e-02 2.04e-02h  2
 106  1.8326393e+05 5.15e+00 1.24e+10  -1.0 1.84e+09  -4.7 2.12e-04 4.67e-04h  7
 107  1.0611490e+05 5.17e+00 1.57e+11  -1.0 3.50e+09    -  5.82e-06 6.63e-03f  2
 108  6.3498189e+04 5.14e+00 9.05e+11  -1.0 1.01e+09  -5.2 6.35e-06 1.98e-02f  2
 109  6.2242139e+04 5.11e+00 7.76e+11  -1.0 7.07e+09  -3.9 8.24e-05 1.88e-04f  4
iter    objective    inf_pr   inf_du lg(mu)  ||d||  lg(rg) alpha_du alpha_pr  ls
 110  6.1020510e+04 4.77e+00 2.30e+12  -1.0 1.58e+08  -2.6 7.76e-03 1.57e-02w  1
 111  6.1026786e+04 4.77e+00 2.30e+12  -1.0 1.47e+08  -3.0 7.09e-03 1.33e-04w  1
 112  6.1026851e+04 4.77e+00 2.30e+12  -1.0 9.41e+07  -2.6 5.25e-04 1.33e-06w  1
 113  6.1894156e+04 5.07e+00 7.44e+11  -1.0 2.65e+09  -3.1 7.76e-03 3.92e-03f  2
 114  6.1855850e+04 5.07e+00 7.44e+11  -1.0 1.89e+08  -3.6 8.63e-03 1.73e-04f  7
 115  6.1602759e+04 5.07e+00 7.44e+11  -1.0 5.44e+09  -4.0 1.04e-03 3.95e-05f  7
 116  5.9287559e+04 1.21e+01 7.13e+11  -1.0 2.17e+08  -3.6 9.37e-03 1.08e-02f  1
 117  5.9287072e+04 1.21e+01 7.13e+11  -1.0 8.62e+07  -4.1 7.95e-03 1.01e-04f  1
 118  5.9287315e+04 1.21e+01 7.13e+11  -1.0 4.13e+08  -4.6 2.73e-04 1.01e-06h  1
 119r 5.9287315e+04 1.21e+01 1.00e+03   1.1 0.00e+00  -4.1 0.00e+00 5.06e-09R  2
iter    objective    inf_pr   inf_du lg(mu)  ||d||  lg(rg) alpha_du alpha_pr  ls
 120r 5.9287316e+04 1.44e+01 9.97e+02   1.1 6.10e+03    -  3.22e-03 1.97e-03f  1
 121r 5.9287317e+04 1.43e+01 9.92e+02   1.1 2.59e+03    -  8.21e-03 3.37e-03f  1
 122r 5.9287319e+04 6.08e+00 1.05e+08   1.1 1.20e+03    -  2.61e-02 8.74e-03f  1
 123  5.9287315e+04 2.14e+02 5.49e+02  -1.0 9.60e+07    -  5.08e-10 1.12e-07H  1
 124  5.9287004e+04 2.14e+02 2.01e+04  -1.0 1.30e+08    -  4.21e-06 2.53e-06h  1
 125r 5.9287004e+04 2.14e+02 9.99e+02   2.3 0.00e+00    -  0.00e+00 4.65e-11R  2
 126r 5.9287004e+04 4.26e+00 9.94e+02   2.3 3.43e+04    -  8.24e-04 6.19e-03f  1
 127  5.9285823e+04 1.42e+01 3.43e+09  -1.0 1.06e+08    -  1.04e-06 3.39e-06f  1
 128r 5.9285823e+04 1.42e+01 9.99e+02   1.2 0.00e+00    -  0.00e+00 4.18e-07R  7
 129r 5.9285824e+04 1.33e+01 9.93e+02   1.2 7.40e+02    -  6.49e-03 5.68e-03f  1
iter    objective    inf_pr   inf_du lg(mu)  ||d||  lg(rg) alpha_du alpha_pr  ls
 130r 5.9285825e+04 1.33e+01 9.80e+02   1.2 9.16e+02    -  4.87e-02 1.36e-02f  1
 131r 5.9285826e+04 1.31e+01 9.43e+02   1.2 2.57e+03    -  3.29e-02 3.76e-02f  1
 132r 5.9285827e+04 1.30e+01 9.39e+02   1.2 1.76e+03    -  2.81e-03 4.05e-03f  1
 133r 5.9285827e+04 1.30e+01 1.55e+03   1.2 4.39e-01   4.0 1.87e-01 8.29e-03h  1
 134r 5.9285827e+04 1.20e+01 2.72e+03   1.2 6.86e-01   3.5 2.80e-02 4.43e-01f  1
 135  5.9283473e+04 2.68e+01 2.83e+04  -1.0 4.08e+07    -  3.18e-07 3.79e-05f  2
 136  5.9264892e+04 2.68e+01 3.04e+04  -1.0 4.22e+07    -  2.21e-02 3.15e-04f  1
 137  5.9010180e+04 6.40e+02 5.04e+10  -1.0 4.31e+07    -  3.85e-08 2.79e-03F  1
 138  5.9045175e+04 6.36e+02 5.03e+10  -1.0 4.98e+07  -2.8 1.21e-02 5.75e-03h  2
 139  5.9154118e+04 6.34e+02 5.02e+10  -1.0 4.35e+07  -2.4 1.61e-02 3.41e-03h  2
iter    objective    inf_pr   inf_du lg(mu)  ||d||  lg(rg) alpha_du alpha_pr  ls
 140  5.9152743e+04 6.34e+02 5.02e+10  -1.0 1.75e+07  -2.0 9.35e-02 4.91e-04f  4
 141  5.9158016e+04 6.34e+02 5.02e+10  -1.0 9.28e+07  -2.4 1.26e-02 5.50e-05h  7
 142  5.9158025e+04 6.34e+02 5.02e+10  -1.0 2.00e+07  -2.0 9.46e-02 2.73e-05h  8
 143  5.9160176e+04 6.34e+02 5.02e+10  -1.0 1.41e+08  -2.5 8.69e-03 1.35e-05h  9
 144r 5.9160176e+04 6.34e+02 1.00e+03   2.8 0.00e+00  -2.1 0.00e+00 4.22e-07R 14
 145r 5.9160176e+04 1.73e+02 1.85e+03   2.8 6.23e+05    -  1.09e-02 1.01e-03f  1
 146  5.9048705e+04 1.73e+02 2.03e+08  -1.0 3.76e+07    -  7.24e-02 2.97e-03f  1
 147  5.8321656e+04 2.03e+02 2.04e+08  -1.0 3.94e+07    -  3.81e-02 2.85e-02f  1
 148  5.8260102e+04 2.03e+02 2.67e+08  -1.0 2.17e+07  -2.5 1.23e-02 3.09e-03f  1
 149  5.8259582e+04 2.03e+02 2.67e+08  -1.0 2.34e+07  -3.0 9.55e-03 2.41e-05f  1
iter    objective    inf_pr   inf_du lg(mu)  ||d||  lg(rg) alpha_du alpha_pr  ls
 150r 5.8259582e+04 2.03e+02 1.00e+03   2.3 0.00e+00  -3.5 0.00e+00 2.75e-07R  6
 151r 5.8259582e+04 2.01e+02 9.98e+02   2.3 1.34e+05    -  9.87e-03 1.24e-03f  1
 152r 5.8259582e+04 1.78e+02 9.86e+02   2.3 1.90e+03    -  1.56e-02 1.21e-02f  1
 153  5.8259568e+04 1.78e+02 6.47e+04  -1.0 4.35e+07    -  6.21e-03 2.73e-07h  4
 154  5.8127922e+04 1.78e+02 2.20e+05  -1.0 2.05e+09    -  1.85e-04 5.40e-05f  1
 155  5.7708903e+04 1.78e+02 1.32e+06  -1.0 1.93e+09    -  2.35e-04 2.19e-04f  1
 156r 5.7708903e+04 1.78e+02 1.00e+03   2.2 0.00e+00    -  0.00e+00 3.74e-07R  9
 157r 5.7708903e+04 1.18e+02 9.92e+02   2.2 3.41e+03    -  1.25e-02 1.74e-02f  1
 158  5.7523433e+04 1.18e+02 3.53e+06  -1.0 2.37e+08    -  1.49e-07 7.46e-04f  1
 159  5.7534013e+04 1.18e+02 2.90e+06  -1.0 2.63e+09    -  1.57e-05 6.97e-06h  1
iter    objective    inf_pr   inf_du lg(mu)  ||d||  lg(rg) alpha_du alpha_pr  ls
 160  5.7533500e+04 1.18e+02 2.91e+06  -1.0 9.88e+09    -  6.48e-05 6.35e-08f  2
 161  5.7465879e+04 1.18e+02 5.64e+07  -1.0 9.18e+10    -  2.14e-09 4.57e-08H  1
 162  5.7463102e+04 1.18e+02 3.06e+13  -1.0 2.50e+10  -4.0 6.73e-06 2.24e-07f  1
 163  5.7463102e+04 1.18e+02 3.18e+10  -1.0 3.95e-04  13.9 9.90e-01 1.00e+00h  1
 164  5.7377277e+04 1.18e+02 4.96e+21  -1.0 2.94e+12    -  1.78e-07 7.29e-09f  1
Scaling factors are invalid - setting them all to 1.
Scaling factors are invalid - setting them all to 1.
MA27BD returned iflag=-4 and requires more memory.
 Increase liw from 18645 to 37290 and la from 21795 to 44678 and factorize again.
Scaling factors are invalid - setting them all to 1.
Scaling factors are invalid - setting them all to 1.
Scaling factors are invalid - setting them all to 1.
Scaling factors are invalid - setting them all to 1.
Scaling factors are invalid - setting them all to 1.
Scaling factors are invalid - setting them all to 1.
Scaling factors are invalid - setting them all to 1.
Scaling factors are invalid - setting them all to 1.
WARNING: Problem in step computation; switching to emergency mode.
 165r 5.7377277e+04 1.18e+02 9.99e+02   2.1 0.00e+00  19.8 0.00e+00 0.00e+00R  1
 166r 5.7377277e+04 9.58e+00 1.46e+04   2.1 3.72e+04    -  1.16e-02 3.15e-03f  1
 167  5.4336646e+04 2.14e+02 6.08e+04  -1.0 3.91e+07    -  1.28e-03 5.83e-02f  1
 168  5.4145803e+04 2.13e+02 5.08e+07  -1.0 3.13e+07    -  1.40e-01 4.92e-03f  1
 169  5.4149032e+04 2.13e+02 5.05e+10  -1.0 1.41e+10    -  1.95e-08 2.54e-07h  1
iter    objective    inf_pr   inf_du lg(mu)  ||d||  lg(rg) alpha_du alpha_pr  ls
 170  5.4149032e+04 2.13e+02 1.86e+07  -1.0 3.78e-02  12.0 9.90e-01 4.91e-04h  8
 171r 5.4149032e+04 2.13e+02 1.00e+03   2.3 0.00e+00    -  0.00e+00 2.74e-11R  2
 172r 5.4149032e+04 2.15e+01 3.66e+11   2.3 1.41e+04    -  1.88e-04 1.50e-02f  1
 173  5.0617230e+04 2.08e+01 6.37e+03  -1.0 3.10e+07    -  4.75e-03 3.38e-02f  1
 174  5.0617002e+04 2.08e+01 6.37e+03  -1.0 4.25e+09    -  2.66e-07 3.67e-08f  2
 175  5.0615935e+04 2.08e+01 1.96e+20  -1.0 4.41e+11    -  7.93e-09 1.69e-09f  1
WARNING: Problem in step computation; switching to emergency mode.
 176r 5.0615935e+04 2.08e+01 1.00e+03   1.3 0.00e+00  19.8 0.00e+00 0.00e+00R  1
 177r 5.0615934e+04 1.32e+01 6.72e+03   1.3 6.31e+03    -  3.38e-03 2.15e-03f  1
 178  5.0581232e+04 8.43e+00 2.20e+11  -1.0 2.90e+07    -  7.58e-02 1.65e-03f  1
 179  5.0581226e+04 3.12e+00 1.01e+06  -1.0 3.13e+06    -  9.65e-02 4.60e-06h  1
iter    objective    inf_pr   inf_du lg(mu)  ||d||  lg(rg) alpha_du alpha_pr  ls
 180r 5.0581226e+04 3.12e+00 1.00e+03   0.5 0.00e+00    -  0.00e+00 2.10e-12R  2
 181r 5.0581226e+04 1.32e+01 2.62e+03   0.5 6.95e+03    -  7.47e-03 1.76e-03f  1
 182r 5.0581226e+04 1.09e+01 1.13e+11   0.5 2.91e+03    -  3.19e-03 3.57e-03f  1
 183r 5.0581226e+04 1.09e+01 1.27e+15   0.5 3.26e+00   5.5 1.38e-03 3.70e-03F  1
 184r 5.0581226e+04 1.09e+01 1.98e+19   0.5 5.38e-05  14.9 9.90e-01 1.00e+00h  1
WARNING: Problem in step computation; switching to emergency mode.
 185r 5.0581226e+04 1.09e+01 1.98e+19   0.5 5.38e-05  19.4 0.00e+00 0.00e+00R  1
 186r 5.0581226e+04 1.09e+01 3.56e+08   0.5 7.61e-16  19.8 9.90e-01 1.00e+00   0
 187r 5.0581226e+04 1.09e+01 4.16e+04   0.5 2.07e-15  19.3 9.90e-01 1.00e+00   0
 188r 5.0581226e+04 1.09e+01 4.79e+04   0.5 7.14e-15  18.8 9.94e-01 1.00e+00h  1
 189r 5.0581226e+04 1.09e+01 4.60e+04   0.5 2.06e-14  18.3 1.00e+00 1.00e+00h  1
iter    objective    inf_pr   inf_du lg(mu)  ||d||  lg(rg) alpha_du alpha_pr  ls
 190r 5.0581226e+04 1.09e+01 1.63e+07   0.5 2.19e-11  17.9 1.00e+00 1.00e+00h  1
 191r 5.0581226e+04 1.09e+01 8.80e+07   0.5 3.54e-10  17.4 1.00e+00 1.00e+00h  1
 192r 5.0581226e+04 1.09e+01 8.77e+07   0.5 1.45e-08  16.9 1.00e+00 3.12e-02h  6
 193r 5.0581226e+04 1.09e+01 8.77e+07   0.5 8.58e-09  16.4 1.00e+00 6.10e-05h 15
 194r 5.0581226e+04 1.09e+01 8.77e+07   0.5 8.59e-09  16.0 1.00e+00 1.22e-04h 14
 195r 5.0581226e+04 1.09e+01 6.67e+06   0.5 2.18e-09  15.5 1.00e+00 1.00e+00h  1
 196r 5.0581226e+04 1.09e+01 6.66e+06   0.5 1.14e-08  15.0 1.00e+00 1.95e-03h 10
 197r 5.0581226e+04 1.09e+01 6.66e+06   0.5 6.83e-09  14.5 1.00e+00 4.88e-04h 12
 198r 5.0581226e+04 1.09e+01 6.26e+05   0.5 5.51e-09  14.1 1.00e+00 1.00e+00s 22
 199r 5.0581226e+04 1.09e+01 2.02e+05   0.5 5.34e-09  13.6 1.00e+00 1.00e+00s 22
iter    objective    inf_pr   inf_du lg(mu)  ||d||  lg(rg) alpha_du alpha_pr  ls
 200r 5.0581226e+04 1.09e+01 2.02e+05   0.5 8.18e-09  13.1 1.00e+00 0.00e+00S 22
 201r 5.0581226e+04 1.09e+01 6.04e+04   0.5 1.44e-08  12.6 1.00e+00 1.00e+00f  1
 202r 5.0581226e+04 1.09e+01 4.98e+04   0.5 3.55e-08  12.1 1.00e+00 1.00e+00f  1
 203r 5.0581226e+04 1.09e+01 4.23e+04   0.5 9.05e-08  11.7 1.00e+00 1.00e+00f  1
 204r 5.0581226e+04 1.09e+01 1.25e+05   0.5 2.95e-07  11.2 1.00e+00 1.00e+00f  1
 205r 5.0581226e+04 1.09e+01 4.22e+05   0.5 8.45e-07  10.7 1.00e+00 1.00e+00f  1
 206r 5.0581226e+04 1.09e+01 1.65e+06   0.5 2.35e-06  10.2 1.00e+00 1.00e+00f  1
 207r 5.0581226e+04 1.09e+01 7.81e+06   0.5 5.83e-06   9.8 1.00e+00 1.00e+00f  1
 208r 5.0581226e+04 1.33e+01 4.50e+07   0.5 1.24e-05   9.3 1.00e+00 1.00e+00f  1
 209r 5.0581226e+04 1.09e+01 4.12e+16   0.5 9.37e-01   8.3 8.72e-03 8.52e-04h  3
WARNING: Problem in step computation; switching to emergency mode.
iter    objective    inf_pr   inf_du lg(mu)  ||d||  lg(rg) alpha_du alpha_pr  ls
 210r 5.0581226e+04 1.09e+01 4.12e+16   0.5 9.37e-01  19.1 0.00e+00 0.00e+00R  1
WARNING: Problem in step computation; switching to emergency mode.
Restoration phase is called at point that is almost feasible,
  with constraint violation 0.000000e+00. Abort.
Restoration phase in the restoration phase failed.

Number of Iterations....: 210

                                   (scaled)                 (unscaled)
Objective...............:   5.0581225580070372e+04    5.0581225580070372e+04
Dual infeasibility......:   4.1150520252731784e+16    4.1150520252731784e+16
Constraint violation....:   1.0858702581672823e+01    1.0858702581672823e+01
Complementarity.........:   3.2073636881621130e+00    3.2073636881621130e+00
Overall NLP error.......:   8.5654119318207900e+15    4.1150520252731784e+16


Number of objective function evaluations             = 870
Number of objective gradient evaluations             = 170
Number of equality constraint evaluations            = 870
Number of inequality constraint evaluations          = 0
Number of equality constraint Jacobian evaluations   = 223
Number of inequality constraint Jacobian evaluations = 0
Number of Lagrangian Hessian evaluations             = 211
Total CPU secs in IPOPT (w/o function evaluations)   =      0.595
Total CPU secs in NLP function evaluations           =      8.711

EXIT: Restoration Failed!
